c 
c U(n,d) graph
c graph gen seed     : 4034
c number of vertices : 50
c max number of edges: 1225
c Euclidean distance : 0.200000
c data structure     : sparse
c
c           Graph Stats
c number of vertices  : 50
c nonisolated vertices: 49
c number of edges     : 137
c edge density        : 0.111837
c max degree          : 11
c avg degree          : 5.48
c min degree          : 0
p col 50 137
e 1 38
e 1 35
e 1 30
e 1 20
e 1 19
e 1 16
e 1 3
e 2 49
e 2 44
e 2 43
e 2 39
e 2 31
e 2 27
e 2 21
e 2 14
e 2 13
e 2 7
e 2 6
e 3 47
e 3 42
e 3 38
e 3 32
e 3 30
e 3 24
e 3 16
e 4 32
e 4 17
e 4 12
e 4 11
e 5 50
e 5 48
e 5 33
e 5 28
e 5 22
e 5 18
e 5 15
e 5 10
e 5 8
e 6 49
e 6 43
e 6 39
e 6 21
e 6 14
e 6 13
e 7 49
e 7 43
e 7 36
e 7 27
e 7 13
e 8 50
e 8 48
e 8 33
e 8 18
e 8 10
e 9 45
e 9 40
e 9 34
e 10 50
e 10 48
e 10 33
e 10 18
e 11 12
e 12 17
e 13 49
e 13 43
e 13 29
e 13 21
e 14 49
e 14 44
e 14 43
e 14 39
e 14 31
e 14 21
e 15 50
e 15 33
e 15 28
e 15 27
e 16 47
e 16 42
e 16 38
e 16 35
e 16 30
e 16 24
e 16 20
e 17 47
e 18 50
e 18 48
e 18 33
e 19 38
e 19 30
e 19 20
e 20 38
e 20 35
e 21 49
e 21 43
e 21 39
e 22 50
e 22 48
e 22 33
e 22 28
e 23 41
e 24 47
e 24 46
e 24 42
e 24 38
e 24 32
e 24 30
e 24 25
e 25 46
e 25 42
e 27 49
e 28 44
e 28 33
e 30 47
e 30 38
e 30 32
e 31 44
e 31 39
e 32 47
e 32 38
e 33 50
e 33 48
e 34 45
e 34 40
e 34 37
e 34 35
e 35 42
e 36 41
e 37 41
e 38 47
e 39 49
e 39 44
e 40 45
e 42 47
e 42 46
e 43 49
e 48 50
